&GLOBAL
  PROJECT AS_PROD
  PRINT_LEVEL LOW
  RUN_TYPE MD
  SEED 2733 9846 3265 4860 9226 7892
&END GLOBAL

&FORCE_EVAL
  METHOD QS
  &SUBSYS
    &CELL
      ABC [angstrom] 78.62816333770752 83.28964233398438 81.87724113464355
      ALPHA_BETA_GAMMA 90.0 90.0 90.0
    &END CELL
    &TOPOLOGY
      COORD_FILE_FORMAT pdb
      COORD_FILE_NAME ../test_data/test_velocities.rst7.pdb
      CONNECTIVITY OFF
    &END TOPOLOGY
    &VELOCITY
      -0.2322643 -0.4410146 -0.3400177
-1.2623526 -0.3361501 -0.0210745
0.1727147 -0.3463572 -0.8351633
-0.2013197 0.2926343 -1.0844358
0.2253574 0.0579352 0.0155782
-0.5248688 -0.2898393 -0.0671046
0.9611466 0.4440285 -0.3866772
-0.1237353 0.0539193 -0.2711929
0.0293453 0.2285273 -0.1663589
-0.1604977 0.3158771 -0.0297811
0.1864567 0.5987284 1.0991350
0.1941085 0.2278781 -0.2064067
-0.1782895 0.0688338 1.4674670
-0.0935897 -0.0654435 -0.0942728
0.7322257 -0.0265094 -0.3054759
-0.4844595 0.7354095 0.5018449
0.1063287 0.0966377 0.0078381
-0.2516264 0.9464870 -0.1755808
0.3437350 0.8445161 -1.1801171
0.0295071 0.0364393 0.0415084
-0.0372911 -0.1099533 -0.1496502
-0.3376816 0.9780512 -1.0526006
0.7866004 -0.8806043 -1.1341609
0.6259250 -0.0225116 -1.7578388
0.0313379 0.0413180 0.1648074
0.0052453 -0.0974636 0.2528246
0.0781706 0.1408689 0.2436969
1.8513516 -0.6559118 0.7415981
-0.1178919 0.2347623 0.5934222
0.3064138 0.0070835 0.0868346
-0.2167603 -0.0721650 0.3526129
1.9941408 -0.2691679 -0.3610454
0.3478353 -0.5898123 -1.0246454
0.1639892 -0.1551065 0.2081061
0.4796635 0.1758719 1.2265120
-0.3771090 -1.6548275 0.7826558
-0.1427279 0.0573648 0.0554656
-0.9382602 -0.4152322 0.4542906
0.7923658 -0.3752095 -1.3390239
0.1844082 0.0576061 -0.2001925
-0.2743084 -0.1954828 0.7543841
-0.2218665 -0.3330709 -0.2964640
0.1186800 -0.2228931 0.2590394
-1.4652212 -0.3362412 -0.4709057
0.8722053 -0.3553678 -0.4509245
0.0336423 0.2200673 0.4734300
0.0833598 1.9145964 -0.2940240
-0.3780210 -0.4150025 0.5880290
-0.1216748 -0.3023267 0.1306281
-0.0694141 -0.5283030 0.1710204
0.1540023 -0.0772549 -0.1973900
1.3746703 0.0300414 -0.0017005
0.2788465 -0.0344259 0.1060764
0.6693841 -1.1553684 -0.6216193
-0.0938594 -0.0355820 -0.5709422
0.0318018 -0.6434106 -0.7830249
0.0123909 0.4120473 -0.0290512
0.2084266 0.0155016 0.1419238
0.1425758 0.2670674 -0.1107476
0.0494291 -0.6878690 0.0645695
0.0638195 -0.1426867 0.3837087
-0.0199458 -0.0360731 0.2348432
-0.0604723 -0.1191474 0.1441314
-0.5253610 0.8211619 -0.1444538
-0.1275926 0.3668067 -0.1144731
0.3255517 0.1868860 -0.1801137
-0.0476977 0.0603818 0.0574759
-0.0559489 1.3971542 0.5184231
-0.0028688 0.3009522 -0.3172495
-0.4316347 -0.2781852 0.7124436
-0.2590770 -0.6697302 -0.4018463
1.2275292 -1.0821827 -0.3224827
-0.2292367 -0.2475457 -0.2270773
2.0041624 -0.8790777 -1.1984529
-1.2416761 0.1849194 -0.3974562
-0.1615781 0.1155868 0.0698541
-0.0096515 1.0348666 -0.0391189
0.7723762 -0.6904053 -0.4048274
0.1979913 1.5191711 -0.4623873
0.3248900 0.4685583 0.1286158
0.0298839 -0.1244054 -0.1848636
0.4279623 -0.1786503 -0.0342016
0.4149924 -0.1151275 0.4253776
0.0024950 0.4389010 -0.2910202
0.8416934 0.1453713 -0.2076738
-0.0029156 0.3433927 0.1667240
0.1036972 -0.4911760 -0.7024771
-0.3968445 -0.7473953 0.3111450
-0.1527490 0.1112098 -0.0545232
-0.1275994 0.5132190 -0.6838366
0.0965691 -0.2440666 0.2550811
-0.0780110 -0.1139792 -0.1601587
0.1255364 -0.0505316 0.3922372
0.7030964 0.2865062 -0.3613181
0.1288269 -0.6144519 0.1384042
-1.0341430 0.3029561 -0.4223969
0.1043881 0.2741778 -0.0033182
-0.4361392 0.4936934 -0.2328498
0.7934976 1.2895234 0.8687093
-0.1511970 0.4461273 1.0719758
-0.1315363 0.0029080 0.0833691
-0.2171155 0.1287593 -0.1719523
0.0159031 -0.0983314 0.3926437
0.2938005 0.7112793 -0.3192753
0.1488940 0.3681442 -0.1287178
0.2434941 1.2913519 -0.2982729
0.1269169 -0.4350444 0.1736032
-0.2314202 0.1837513 -1.1292336
-0.1302760 0.0106283 -0.5390658
0.0149611 0.1731157 -1.0080170
-0.5246948 0.2413560 0.2869170
0.5185217 0.0937247 0.6459622
0.1041552 0.5352744 0.0275144
-0.4557337 1.4397153 1.2881198
0.7024424 0.9113891 0.7312688
0.0064562 0.1671609 -0.3323714
-0.6945299 1.5802661 0.2054168
-0.2636930 0.2184182 -1.0064870
-1.3617294 0.1354016 -0.0639844
0.2085656 0.1168982 -0.1816785
0.0210130 -0.0110291 -0.2712345
0.1451041 0.1900466 0.1633328
-0.5559136 0.6204484 -0.6268516
0.0585440 -0.1698058 0.1987575
0.5588452 -0.8981233 -0.3462155
0.0853772 -0.0742890 -0.3366851
1.2269864 0.7646500 -0.6414739
0.8474671 0.9623221 1.1844663
0.0991264 0.0567879 -0.0466759
0.0627127 -0.0119621 -0.1523171
0.2574601 0.2967636 -0.2457793
-0.0011258 -0.3694071 -0.3260086
0.0914274 0.0807298 -0.2845540
-0.2028322 0.0657141 -0.1068704
-0.3624858 0.1233147 -0.0494387
0.2409584 -0.0097607 -0.0181116
-0.9963308 0.7916071 1.7679734
0.0462389 -0.0589140 -0.2388783
-0.0144066 -0.5593782 -1.3277237
0.5905707 0.0676348 -0.3201686
0.1591574 -0.2549299 -0.0110940
0.0292670 -0.0891275 -0.5732333
-0.1113427 0.0373294 -0.2584366
0.1999035 0.6987806 0.7446060
0.0294117 -0.1661937 -0.2591353
0.0609067 -0.6475422 0.6941979
0.1579404 -0.1371735 0.1752003
-0.8416901 -1.4305103 0.4908721
-0.6446495 1.0710316 1.3724498
0.5698548 0.5895580 -0.3430111
-0.2237019 -0.3293782 -0.1220187
-0.5573425 0.1486511 0.0016862
-0.2362549 -0.1997959 0.1384537
-1.0811451 0.2976421 -0.0408347
0.1157037 -0.1591711 0.2535924
0.3378941 0.1209379 0.0498693
0.4112154 -0.0675218 -0.2129477
-1.4621782 0.8946459 0.9178742
0.1250979 0.2265431 0.1486615
0.2650648 -0.3110483 -0.6001719
-0.0563438 -1.3926790 0.6425113
0.7004328 -0.0301679 0.8886932
-0.2572071 0.1116464 0.0526540
0.0556645 1.1908402 0.2146895
-0.5419682 -0.2876207 1.2022114
-0.5221671 0.5211102 0.5648194
-0.1116882 -0.3451336 -0.1963570
0.2511160 0.1790916 -0.1959012
0.0680042 0.0703625 -0.2270443
-0.4682167 -1.6456211 0.3799547
0.0764352 0.3723197 -0.1875951
0.6928685 -1.1212948 0.3224731
-0.2282698 0.2422964 0.0289736
0.1987343 -0.1896688 -0.3218173
-1.3746608 -0.1125159 -0.3697806
0.2023441 -0.2388194 -0.0220980
-0.3920940 -0.2080108 0.3860533
0.1925564 -0.1698194 0.5065675
0.0092328 -0.1625012 -0.0672327
-0.0595058 0.9394976 0.6719785
-0.1121773 0.6237992 0.6589497
-0.0954716 0.2641387 0.0552457
-0.1623184 0.4938037 0.7577422
0.3249053 0.9534711 -0.2856820
0.3581968 0.0853040 0.0438938
0.7767495 -0.2626045 -0.2361451
0.1999897 -0.6629755 -0.5759807
-0.4261394 0.4919194 0.4266350
0.1053800 -0.0897945 0.0899853
-0.0986573 0.0727518 0.1874202
0.0358438 -0.1683093 -0.0795031
-1.1098851 0.2634873 0.1877447
0.1669448 0.0898902 -0.1187785
-0.1062716 -1.4044913 0.2303055
-0.0538146 0.2750169 -0.1272363
0.8333702 2.3026997 1.0034608
0.6328229 -0.9929803 -0.9039430
0.2152496 0.1082816 -0.3265262
-0.0609562 -0.7532105 0.2632296
0.2221044 -0.2537566 0.1945823
0.2202842 -0.3035115 -0.0145091
0.4501084 -0.1777408 -0.1409477
-0.1864659 0.0156062 0.3444934
-0.2183146 -0.2569619 -0.0791145
0.0180000 -0.1534671 0.2408566
0.2385181 0.4870456 -0.2303142
-1.0622129 1.2866267 -0.6334798
0.1531296 0.1382127 -0.0122387
0.4246109 -0.0019474 0.8869614
0.1848229 0.0507744 -0.0784851
0.9874974 0.0113101 -0.8729335
-0.1158183 0.2913107 -0.3119730
-0.0475852 -1.4760385 0.1499672
-0.8373570 0.2697829 0.4599186
-0.0559831 0.7978929 -0.9912130
-0.3666817 0.0171252 0.1870897
-0.2792319 -1.4581564 -0.0286360
1.2000796 -0.7979955 0.9727203
0.0746979 0.3506523 0.1210452
0.1926453 1.2712478 -0.6032599
-0.3739673 -0.0779741 -1.0608986
0.4312503 -1.0418630 -0.9316647
0.0204890 0.2309920 0.3908940
0.0793576 0.0208272 -0.0182714
0.3427545 0.0375958 -0.1988874
-0.5793491 -0.3964074 -0.5167127
-0.0470167 -0.0830346 -0.4444195
-1.3035414 0.2217539 0.5647524
-0.3507326 -0.0851023 0.2565366
0.1431406 0.4116259 1.5817012
1.0498738 -1.6955630 -1.5957192
0.3085200 -0.2122943 -0.1165334
-0.1569715 -0.4147600 -0.3795985
-0.9589760 -1.0824044 -1.4226081
0.2782893 0.1372597 0.0925947
-2.3503731 -0.7932222 -0.0074376
-0.4165402 0.2839449 -0.0785327
0.1193887 -0.3332568 -0.3440091
-0.6691348 -0.7309285 0.4180805
-0.3795380 -0.5845086 -0.8775245
-0.0759268 -0.1444856 0.3375613
-0.5300154 1.4732897 -0.4329178
0.0489823 -0.8204471 -0.7423867
-0.3147415 1.1707461 -1.4113405
0.3750550 -0.1270337 -0.2802878
-0.0083948 -0.3757983 0.1281615
-0.2214657 0.3985784 -0.0251893
-0.8996650 -0.3715057 0.2959967
0.2007160 0.0323276 0.1954042
-0.6314366 -1.1758991 1.1913806
0.0086849 0.1066158 0.0425761
-0.6072551 0.9553616 0.3591426
0.0900056 0.2783532 0.4075740
-1.3859149 1.2300663 1.7705485
0.3646300 0.7250181 1.1910725
1.0069962 1.0192284 0.1393051
-0.0118277 0.0845946 -0.0407716
-0.1332519 0.3306061 1.2377806
0.2991577 0.8648048 0.4854792
0.3164156 0.0467761 0.1600128
1.2300326 -0.8713110 -0.3458044
0.4994433 0.6737304 0.1841809
-2.5229730 0.4901970 -0.7422280
-0.1011505 0.0036311 -0.4698292
-0.0473424 0.2565505 -0.0650083
-0.3329186 -0.1311775 0.0589997
0.8036779 -0.1234043 0.7002623
-0.0370457 -0.0970947 -0.2839950
-0.1061472 -1.0715695 0.3424904
1.2515860 -0.6931332 -0.3851663
-0.4096232 0.0575110 0.0044108
-0.1327517 -0.4420951 -0.1990529
0.2046711 -0.1842718 0.0142461
-0.4278233 1.4706955 1.3631453
-0.0314957 0.3522080 -0.0515199
1.3800945 0.1656175 0.6368374
0.0168203 -0.3052300 0.0187308
0.8170689 1.2543989 -0.4968281
-0.4435493 -0.1161801 -0.7057639
0.0375430 -0.3203115 0.1985201
-0.0826245 0.0409658 0.0715534
-0.4871872 -0.1009406 0.0455122
0.0656381 0.3007439 -0.1462196
-1.1339123 0.3016231 -0.1840384
-0.1132359 -0.1530075 -0.0380022
0.0209786 0.1378877 0.1548878
0.0381279 0.3705995 0.0325793
-0.0725955 0.3508439 0.0063767
0.7949723 -0.0972685 -0.6572374
0.0615816 -0.1533454 0.1006510
-1.0964934 1.0297237 0.4430310
-0.3116112 -0.0661310 -0.1737450
-0.2746352 -0.5952189 -0.7164305
0.1023522 -0.2910498 0.1111043
0.3519282 -0.4336892 -0.0119193
0.1850648 -0.0681308 0.1205388
0.1650949 0.0436812 -0.4306441
-0.2878858 1.0504232 -0.5123793
-0.1074061 0.2331563 0.1022246
1.7265005 0.4625569 -0.5507443
0.5437668 -0.2073073 -0.4524840
0.8201352 -0.4379701 -0.6001700
0.3534626 0.2086359 0.5233297
-0.1252915 -0.2134995 -0.0979724
-0.0624713 0.0187022 -0.1353656
0.5312163 0.1979110 -0.0746620
0.3339853 -0.4613377 -0.0723221
0.3832002 -1.2333188 -0.6665960
-0.3785822 -0.2166460 -0.1165816
0.0504638 0.1461653 0.0248671
-0.2122553 -0.0083705 -0.0247919
-1.3691655 1.6232245 1.2488816
-0.1803665 -0.2426204 -0.1514406
0.0832301 -1.1439952 -0.1900997
-0.0972121 0.1863707 0.1973546
-0.4993316 0.0291581 0.7237148
-1.4379330 -0.6745853 -0.7289885
0.0166719 -0.0680541 0.0515448
1.6338581 -0.6707564 0.7293557
-0.0710624 0.2626747 -0.2146353
0.4550308 0.7225797 0.1900117
-0.3979477 -0.7454192 0.5415948
0.8673087 -0.8527772 -0.4408780
-0.1751493 0.2242111 0.2563039
-1.2919155 0.3160966 -0.5483686
1.0080210 0.1090079 0.0585313
-0.1677157 -0.8730686 0.2646740
-0.0889395 0.0792184 -0.0079306
-0.0250208 -0.2000554 0.1857164
-0.2589368 -0.0278929 0.1322734
1.1896491 -0.1617789 0.2021873
0.4684848 -0.2465159 0.2994175
-0.3926691 0.1675053 -0.1301152
1.1914629 0.4389072 0.0723009
-0.2433183 0.1692725 -0.2218263
-0.0122376 -0.0382517 -0.0358097
-0.1985561 0.1629191 0.0885223
0.8196177 0.6546278 -0.7173416
-0.2701818 -0.1941247 -0.0656669
-0.1342641 0.2539399 1.2523212
0.0731358 0.0828752 0.2400581
-0.3771814 1.0152537 -0.4227774
-1.0322578 0.2078326 0.0030387
-0.4482421 -0.0128307 0.3527060
-0.3773865 0.1218499 -0.0216914
-0.0902747 -0.1324953 0.2221833
-0.0932700 -0.5372348 -0.6043009
-0.8216047 0.0146677 -0.7006174
0.1644834 0.1096634 -0.0491653
-0.0286826 0.0274506 -0.0229222
-0.0801591 0.0357611 -0.0132577
-0.2596616 -0.3210434 1.5130311
0.0386123 -0.0388711 -0.1362731
0.2303476 -0.2479055 1.1515189
-0.0804520 0.3765680 -0.2937910
1.1884306 -0.6098361 0.6250308
-0.1211399 0.0690892 -0.2212981
0.0307213 0.2596513 -1.3165204
-0.8164488 0.2275174 0.7883289
-0.0459744 -0.3780845 0.7066513
-0.0002896 -0.2425567 -0.1935538
-0.5885644 -0.8943783 -0.2537373
0.0608660 0.1931759 -0.2114501
0.0135568 -0.0380235 0.3850889
0.2092011 0.4218123 -0.1392973
-1.1263023 0.0455596 -1.4886070
0.0832285 0.0518202 -0.2489219
-2.3510851 0.1522678 0.4052542
-0.0784887 -0.2408375 -0.1971022
0.2485962 -0.6065189 0.3131745
0.0103828 -0.9145278 0.8649995
0.2202389 -0.0302542 -0.5674878
0.4459171 0.3223479 -0.3288822
0.3598618 -0.2817841 -0.1432956
-0.3695960 1.9437599 0.4260677
-0.3250992 0.0340074 -0.5210074
0.1888139 0.0829515 0.7285217
-0.0486563 -0.0197661 -0.0054044
0.4432237 -1.6354908 0.3760733
-0.9602205 -1.2560686 -0.8268375
0.5545193 -0.2828261 -0.9009956
0.3408285 0.3531928 -0.1538053
0.0472725 0.0738233 -0.0329060
0.0046766 0.3525443 0.1342190
-1.3151895 0.5101851 -1.3937347
-0.3908998 0.3234038 0.2000597
-1.1630371 0.4237520 -0.2577075
-0.1674516 -0.2290780 -0.2709068
-0.9332223 -1.1080773 -1.3408553
-0.0381265 1.2028674 -0.3559643
0.1869273 -0.3149449 0.3182745
0.2666101 -0.1917493 -0.2148789
-0.0641641 0.0076831 -0.1296347
-0.1191987 0.2795806 0.0229420
0.0273974 -0.0400591 0.0490428
-0.0363060 0.3894039 -0.4349008
0.4587317 -0.3711108 -0.0422740
0.1956909 0.2667803 -0.3204995
0.0271857 -0.7094012 1.4634699
-0.0875746 0.0333194 -0.0953510
1.5786461 -0.8632263 0.7926941
1.0360471 1.2906771 2.1282454
0.9039393 -0.9212180 -0.8383492
0.1966332 -0.1212477 0.3118094
-0.1025026 0.0530037 0.1416139
-0.1838619 -0.1425139 -0.0773645
-0.4163870 -0.1612357 0.1161010
0.0059360 1.4614818 -0.2024457
0.2986714 0.3614318 -0.5458258
0.0106941 0.1983685 0.6329082
0.1041015 -0.6884718 0.6410438
0.2211358 0.7072806 0.4313579
-0.5285685 0.1757823 0.1311759
0.1714224 0.1659728 -0.7815751
-0.8817148 -0.1255924 0.5662692
-0.0249866 -0.0372818 -0.2614949
-0.6218648 -0.3730514 0.7457834
-0.0463707 0.2295029 0.1758004
-0.1411466 -0.0535548 0.0455794
-0.0774227 0.1312075 -0.2444245
0.6714507 0.0644595 0.0436491
-0.2920292 0.1212720 -0.4086965
-0.1482399 0.1765832 -0.2902599
-0.5525897 0.1746012 0.0222442
-0.4910180 1.1359436 0.5828792
0.2499247 0.2078682 -0.1568438
0.3025504 -1.1507267 -0.3216381
-0.1455787 -1.0801264 -0.5488686
-1.6394810 0.9504223 0.8775807
-0.0138730 0.0508141 -0.1092549
-0.1397097 -0.7242927 -0.0822497
0.4053457 -0.0624430 -0.4456231
-0.0105896 -0.3134517 0.1628836
0.1986681 -0.0656832 0.1579869
-0.2413346 0.2774058 0.0859417
0.2724863 0.0882690 0.0528958
0.9841113 0.5151726 1.0418167
0.1041461 -0.1320194 -0.2939047
0.8027315 -1.2036970 -0.0202305
0.4298260 0.2129050 -0.1370213
0.0844588 -0.1660488 0.1223998
0.0059572 0.1740598 -0.4188563
0.8475089 0.7287832 -0.2622700
0.0070217 0.0716468 -0.2014590
0.1489067 -0.1097117 0.0883889
0.3146955 -0.0474394 0.0567095
-0.0132659 0.0572591 -0.0214238
0.3435943 -0.2046334 0.2084126
0.3628544 -0.1197704 0.2557554
-0.2724985 0.0793158 0.8152911
-0.0206109 -0.0630688 0.2551695
-1.0239324 0.4656247 -1.2199856
0.2186832 0.2540776 -0.2633156
-0.4764643 -1.1303496 -1.2224266
-0.2676117 0.0495149 -0.0538883
-0.7727267 -1.4881190 1.0260410
0.4143276 0.2785876 0.0122676
-0.7188913 0.1355390 -0.0764594
0.0284955 -0.2354170 -0.3324910
0.0124716 0.4098743 -0.4943596
0.4080873 -0.1308333 -0.3874341
0.0020555 -0.1250338 -0.0791904
0.0031163 -0.1407385 -0.0225270
-0.2428777 -0.1608399 -0.1994741
-0.2660693 -0.1768609 -0.0310060
1.0825805 -0.7662835 -0.3284079
0.4673435 -0.0047488 -0.1659067
0.1668318 0.5580554 -1.3198039
0.2310369 -0.0559662 0.0977525
0.9345824 1.8942866 -0.3791911
0.0056192 -0.0088487 -0.0590825
-0.1209783 0.2059806 0.0888644
0.0756739 -0.3623491 0.2107830
0.2597331 0.9959893 1.7010931
-0.0059939 0.2613950 -0.1208969
-0.3614342 0.2797946 -0.3959259
0.0609647 0.1020298 -0.1763602
-0.4483654 0.9916128 0.1949238
0.6861659 -0.1533966 -0.8102233
0.1567166 0.4359620 -0.0012106
-0.2682707 -0.0547532 -0.0486884
1.2893025 1.2633303 0.3528209
-0.0008425 -0.1165870 -0.0279158
0.4444716 -1.1495561 0.9588808
0.4484827 -0.3558900 -0.0302893
-0.1363587 -0.0046281 0.0367781
-0.7932573 0.0321887 -0.9229907
-0.0051884 0.5588741 -0.0862445
-0.4374454 -0.1396895 -0.2427804
0.3986454 0.0503776 -0.2661471
0.4690866 -0.7298180 -0.0679795
-0.2811810 0.0338074 0.4046252
-0.2418703 1.3040675 -2.4480477
0.1874657 -0.1799701 0.1489028
-0.3701475 -0.1094685 0.4346794
0.1459708 0.1197838 -0.4069529
0.1881427 0.1023024 -0.0114854
0.8609357 -1.3245587 2.9240817
0.3717847 -0.2022700 0.0605306
-1.7976077 0.4216029 0.1347438
0.9131629 -0.5459648 0.1598504
-0.0505262 -0.0184287 -0.1950906
0.0380627 -0.2661229 0.1090394
-0.0559727 -0.0597515 0.4285059
0.8115885 1.5870514 0.8093174
-0.4233411 -0.0178163 0.2841088
-0.0499235 -0.2092604 -0.1934750
0.3568716 0.0556176 -0.2019390
0.4206405 0.1588954 0.1968786
-0.4946717 0.7780627 -0.1369578
-0.3459567 -0.0867447 -0.2061508
0.0996083 -0.1720415 0.0123307
-0.1706232 0.0690540 -0.0411479
-0.8482334 0.2218832 -0.4835278
-0.7664726 -0.1687903 0.2957334
0.1332641 0.2787748 -0.2710556
0.0346979 0.1144434 -0.0632107
-0.0045178 -0.1931540 -0.0615559
0.0844089 -0.3030014 -0.0328016
-0.3496732 -0.2882952 0.2625913
0.5963285 -0.1764496 0.5291846
0.0699603 -0.1290473 0.3029449
-0.6769496 -0.0335716 0.2497405
-1.8421152 1.7022061 -1.2008028
-0.1367144 -0.0823688 0.2690631
0.6717790 -0.2498197 -1.3814283
0.2888708 0.9086661 0.4100564
-0.1575874 -0.0498129 -0.2140621
-0.5133983 -0.4015900 -0.2460472
0.0674674 0.2871271 -0.3114210
0.3752685 -0.1840756 0.2736391
0.1585900 -0.0573488 -0.2157104
-0.7645151 -0.1367667 1.5467922
-0.2996893 -0.4407712 -0.0742810
2.5538232 -0.4176370 1.3720355
0.1894684 -0.1354213 -0.3027500
0.7292839 0.3461720 -1.5836124
-0.8197828 -1.0486684 -0.2494214
-0.2707790 0.1782212 0.0028552
-1.5142776 1.6170307 -0.6239792
0.7850797 1.3243380 0.2602327
0.0211708 -0.2289525 0.0563971
0.3109668 1.1497721 -0.5060571
0.1496128 -0.8920284 0.4506353
0.0947217 0.0810448 0.1788508
1.9138809 0.4382365 -1.0541796
-0.1328595 -0.4090453 0.2318334
-0.3152403 -0.0497340 -0.0163072
1.0413707 -0.8612980 0.0452188
-0.7172960 -0.7096694 -0.2057820
-0.0947358 0.0206945 0.1130724
1.5973921 -0.4362628 0.2992262
0.3595987 -0.3483930 -0.8372491
-0.1004038 -0.3925689 0.1292204
-0.1329992 0.0990638 -0.1637460
-0.1284741 -0.1193576 -0.2047304
0.6604750 0.0205561 -0.8413329
0.0985371 0.3551729 -0.0480025
0.2558494 -0.8363517 -0.5205479
-0.0569767 -0.3113751 -0.3436378
0.0036640 0.1752147 0.0477520
-0.0822233 -0.5832722 0.3288816
1.1772874 0.5867196 1.1844559
-0.0087715 0.4770876 -0.5537876
-1.2626389 -0.8356256 -0.1331436
0.0711197 -0.2349341 0.0640397
-0.2891521 -0.6902980 0.5726621
0.3066780 -0.2321713 -0.3185454
0.0762068 0.0618863 0.1743083
0.0020427 0.0958602 0.0432479
0.3122129 0.0770355 -0.2677807
0.0428521 -0.1713017 -0.3523964
0.1990394 0.7621823 0.0504864
0.2066038 0.1492337 0.1161035
1.5934224 1.4141095 -0.2114527
-0.3330163 -0.0746824 0.0724338
-0.1307341 0.2207730 0.0723954
0.9291761 -0.4122393 -0.6095281
-0.1975613 1.3865200 0.7324520
-0.5461605 -0.1569400 -0.2048265
1.4230249 -0.0023560 -1.2292946
-0.3577225 -0.0471030 0.0644022
-0.0369926 0.0233219 0.5043973
-0.0004272 0.0866223 0.1494824
-0.9583092 -0.7993007 -1.1717124
-0.0208565 -0.1259472 0.1006068
0.5553096 -0.6890611 0.2391508
0.0968240 -0.1094757 0.1192745
2.2205504 0.1789046 -0.6885076
-0.4553455 -0.6413607 0.3525021
-0.0588445 0.0515316 -0.4161743
-0.1208350 -0.4444407 0.6696564
-0.8807117 0.3891507 -0.9352282
0.2033648 0.2130957 -0.1373012
0.8317653 1.7260848 -0.4013377
-0.3773129 -0.2272586 0.9019677
0.0666144 -0.1201268 0.0656214
-0.6848951 0.3547716 -0.3981411
-0.6937877 -0.2282261 2.0726220
-0.1797663 -0.3550751 -0.0208030
0.9841084 -0.0196107 -0.5035593
-0.2689511 -0.2840711 0.8658998
-0.7912199 0.2929993 0.9368369
0.0602985 0.0095669 0.1052280
0.1034886 0.1487845 0.1641783
0.0694738 0.3841821 -0.1329398
0.4992495 -0.0783304 -0.1591657
0.1606392 -0.1377952 -0.0258294
-0.0500643 0.4280268 -1.9224939
-0.0059966 -0.2609154 -0.3019290
-0.7638212 0.0518649 -0.3778063
0.5338842 0.8937533 -0.6693611
0.6974213 0.2959388 -0.1425997
0.1057060 0.2810662 -0.0414721
0.1503617 0.0165916 -0.0757177
-0.0098736 -0.0070168 0.2184709
-0.1192438 -1.4713434 2.3202985
-0.3357469 -0.0705537 -0.0667581
0.7132282 -0.9648106 -0.4373744
-0.0830747 -0.1813174 -0.1639533
-0.7492842 0.6318090 0.3469628
-0.8588396 0.3663336 1.0610540
0.5502532 0.4208678 -0.0875006
0.0740013 -0.9795958 -0.0602001
0.6446638 0.3498487 -0.0401061
0.0417024 0.0669196 -0.1881436
-0.0506074 -0.5064481 0.0420943
0.4844266 -0.0483716 -0.9926511
-0.3123446 1.7232822 0.6311764
-0.5155784 0.3093165 0.1876896
-0.2184658 -0.3501791 -0.0291006
0.0032176 -0.0823945 -0.0400388
0.0235130 0.1147338 -0.2229638
0.8642107 -0.4366444 -0.7796621
0.0106427 0.0859850 0.2770696
1.2488804 0.0321030 1.0999436
0.0331869 -0.2327219 -0.1867539
0.1192634 -0.1580952 -0.1403089
-0.4342602 -0.0543654 -0.1016106
1.3526219 -0.8765116 -0.4053398
-0.2480739 1.1910180 -1.0016478
0.7050286 0.3804008 0.0791787
-0.0798434 -0.0633465 -0.1979654
0.0935982 -0.0268772 0.4433964
-0.6788017 0.0714380 -0.7857495
-0.0179994 0.0173094 0.2431671
-0.6781211 -0.0512633 1.0381208
0.7021561 -0.1972189 0.2631654
0.5617810 1.4778731 -1.1633506
-0.0909737 -0.0651620 0.3029712
0.2435964 -0.3625383 -0.2331049
-0.2541691 -0.0703880 -0.2569547
0.5176003 0.3126373 -0.4942334
-0.1424485 0.2089450 0.0833474
0.5798072 -1.6261919 -1.3604724
0.1874187 0.0509511 -0.0196107
-0.0659970 -1.2825222 1.4155666
0.3206548 0.7154643 0.1513648
0.4831547 0.1564096 0.2425884
0.4137531 1.1295251 0.3597270
0.2902466 0.3276396 -0.4930680
-0.2829370 0.1639915 -0.0374507
-0.2718850 -0.1906531 0.0016480
0.1391569 -0.1314087 0.1536232
-0.0466298 -0.0023326 -0.2041553
0.0501046 0.0019939 -0.1876689
-0.0148229 -0.1070307 0.1837181
-1.6761550 0.2997291 -0.2031089
-0.1186506 0.0477653 -0.2136471
-0.2269440 0.6430438 0.9798622
-0.1585794 0.1312688 -0.0226072
-0.2508388 0.5708991 -0.8582769
1.0454407 1.4257600 0.4122797
-0.2100273 0.0453019 0.4962564
-0.4546806 1.0529056 -0.8409134
0.7429817 0.8955664 -0.6120941
0.0166099 0.2222492 -0.1334433
0.4277847 -0.3441969 0.9633147
-0.0757932 -0.7528356 0.2600971
0.0781348 0.1283521 0.1702277
-0.1687654 -1.6192971 -0.2253923
0.0442996 -0.4518018 -1.0083207
-0.4295845 0.2318520 0.1304684
0.3619969 0.1315629 0.7691150
-0.7265663 -1.1022372 -0.1164434
-0.3599625 -0.3865639 0.1642381
0.0586152 0.3830212 -0.2584451
0.0960265 -0.3252225 0.0430931
-0.0566764 -0.3039529 0.2209970
-0.1994206 -0.1582616 0.3257472
0.2772341 0.3180153 -0.0284149
-0.8353643 1.1415269 -0.0438160
-0.1182950 0.0190687 -0.2345492
1.1234605 0.3908815 0.2594210
-0.0420587 -0.1213742 -0.0417315
-0.4050995 0.3743705 0.2635213
-0.7038280 0.9630747 0.7265709
0.7840263 -1.0688738 0.7584401
-0.2710917 0.2849185 -0.1383674
0.2099990 1.3726070 -1.1523323
-0.3704324 1.7857329 1.7347576
0.4859981 1.1285182 -1.1899204
-0.0008831 -0.2163666 0.5674989
0.2093390 -0.1208044 0.1692264
0.1999708 0.2243897 0.2577811
-0.5889967 0.3039319 0.1515681
0.1876425 -0.1083996 0.2105953
-0.7718479 0.5274071 0.7357920
-0.1223067 -0.0141528 0.1203177
0.0044154 -0.9187645 -0.4708586
-0.8207247 0.6021618 0.2449158
0.2295296 0.3316141 0.2184218
-0.7354233 -1.8730368 -0.3623808
-0.8225395 -0.0679414 0.1094586
-0.0903347 -0.0419593 0.1564952
1.1300591 0.6652858 -0.9670286
0.5497208 -1.0314498 1.6681193
-0.2983096 0.0053481 0.1232719
-0.3736117 -2.1270493 0.1861653
-0.2506660 0.0106131 0.2547558
-0.0926131 0.0873703 -0.0377534
1.3579906 1.6612770 1.1695645
0.0944466 -0.8322599 -0.0630078
0.1834311 0.1789843 0.0996783
0.5678436 -0.1437820 -0.3894554
-0.9871321 0.9999316 -0.3275188
0.0123388 0.4654799 0.0065170
0.1311129 0.2946988 0.0410184
-0.0024067 -0.0753740 -0.1577132
-0.9080037 -0.8094807 -1.1664626
-0.2892336 0.3754282 0.0620425
-1.6616775 0.3529299 0.1193882
0.4209194 -0.2741673 0.2719001
0.8154756 0.3509677 -0.8452758
0.0276432 -0.1382762 0.2808818
0.0521385 0.1174185 -0.2457566
0.1220119 0.4644855 -1.1047478
1.4259651 0.2117872 0.3119381
-0.2546526 -0.0816683 -0.0321283
0.2017865 -0.1270969 0.2648714
-0.3165125 -0.1071723 -0.2112962
-0.0124032 -0.4592447 -0.4398141
-0.1992110 -0.0044351 -0.1035353
0.1151294 -0.1807143 -0.1969082
-1.3166889 -1.2516942 -0.3126629
-0.3335311 -0.2900150 0.0763840
0.1165322 0.1677427 -0.0659423
-0.0971051 -0.5547758 0.1655658
1.0762313 0.0473004 -0.1801246
-1.8200439 -2.0029286 2.5400106
0.0760352 0.1281500 -0.1163478
0.0283363 0.6942489 0.1535517
1.4091208 -1.3449382 0.0043663
0.0567534 -0.1618760 -0.1624959
0.0927587 0.1206536 0.2161072
0.9271598 0.8742841 -0.0220052
0.0376747 -0.7643712 -0.0994856
-1.0382051 0.7111998 -0.3516333
-0.0866273 -0.0194281 0.4312379
-0.3049222 -0.1866332 0.1753243
-0.0661728 -0.0895375 -0.0382206
0.2389309 0.5244902 -0.8509020
-0.2316050 0.3542909 -0.1343441
-0.1414480 -0.1254070 0.9953666
0.3743404 -1.0915540 -0.6175588
-0.0736881 0.0083373 -0.0087869
-0.2742355 -0.0616439 0.1100972
-0.2627538 0.2711342 -0.1490995
0.1505006 0.0644148 0.0847081
-0.1391913 -0.0847835 0.1045628
0.0422731 -0.8489253 0.6937630
0.1812119 0.2304409 -0.0287303
-0.2299116 0.4788024 0.7662571
-1.3953036 -0.0486698 0.4935482
0.0689144 -0.1305939 -0.1394956
0.0738976 0.5657284 0.2916680
0.4184669 0.8973465 1.7966596
0.0059948 0.0715826 -0.0920730
0.4922514 1.1017627 0.6277340
-0.1747914 -0.3148997 0.4050366
-0.1731305 -0.1687960 -1.1145412
0.0033740 -0.0060208 -0.1160611
-0.6340647 -0.0335248 -0.1244583
0.0222204 0.1936894 0.2558562
-1.3492042 0.6182527 1.3624280
-0.1377280 0.1756443 -0.1502402
-0.0777381 0.2403554 0.0509095
0.2339818 0.2932136 -0.2921246
0.1702422 -0.4668221 -0.3476444
0.2238133 -0.2780751 0.0864990
1.0719552 0.1585791 -0.2353884
0.2949252 -0.0608679 0.1867956
0.8347067 0.3620378 -0.2436891
-0.9802478 -1.6421665 -1.4219052
-0.0354665 0.1924946 -0.0923200
-0.0717674 0.0657390 0.3790159
-0.0004954 -0.0789206 0.0371886
-0.4325921 0.7555051 0.5666735
-0.8651614 0.7967075 0.4143880
-0.1131344 -0.0982165 -0.2669263
0.0450539 0.2589265 0.0797880
0.1900798 0.1446315 -0.0054987
-1.3351972 0.2260633 0.0236047
0.2060137 0.3647273 -0.0605626
-0.9503554 -0.9455442 -0.9063852
-0.2695739 -0.0571667 -0.1330743
0.4810148 0.2405875 0.3987754
0.8731087 -0.1587510 -1.0841370
0.9577680 0.6739245 0.5793457
-0.3636022 0.3898314 -0.1404483
0.0033164 0.3987062 -0.1284832
-0.0918442 -0.4174691 0.3026429
1.4382106 0.1689444 0.7393175
-0.3299423 -0.1921214 -0.3273902
-0.6462879 0.5600903 0.8713185
-0.2005731 0.1290176 0.1126760
0.2824268 0.3201859 -0.4158635
-0.0041055 0.2094365 0.0568091
-0.7891688 0.4865909 0.5722999
-0.6691068 1.5092276 0.1812821
1.1184667 1.1916609 0.3257032
0.0127231 0.1296042 0.0411869
0.5742462 -1.4231716 -0.5338309
-0.9183372 -0.4798894 -0.3365047
-0.0521353 -0.2251967 -0.4477822
-0.3552094 -0.2052778 -0.1122232
-0.0840734 0.0593120 0.0345155
-0.1027650 0.0876504 0.2893622
0.3158996 0.4680054 -0.1995126
-0.3060994 0.1917771 -0.0184442
-0.4561366 0.0617867 -1.1749785
-0.2635425 0.1669122 -0.1799912
-0.1476134 -0.1575675 -0.2753019
0.5880492 0.3498523 0.2740067
-0.4214459 0.0538028 0.2842123
0.9274706 1.5514998 -0.6364463
0.4356742 0.6132388 0.8388034
-0.1620891 0.0161784 -0.1580604
0.4422912 0.2788841 0.8061566
0.4881080 1.2765746 -0.3205951
-0.0563892 0.0438707 -0.1754282
0.3913834 -0.1825871 -0.0113400
-0.0760823 -0.1540745 -0.1597306
0.0032619 0.0956554 -0.0716276
-0.1398481 1.0871124 1.2605500
-1.1068890 1.0207707 0.0673940
-0.2338940 -0.1508506 0.2446156
0.7162303 0.4826127 0.7740140
-0.2739707 -0.2515440 1.2600915
-0.2181693 -0.2680817 0.1024588
-0.0855226 -0.0079544 -0.3621765
0.1225794 0.0290698 0.0861580
0.2430805 -1.4011609 0.1746770
0.3682617 -0.0272598 0.0496355
0.8220724 0.4745221 -0.1492838
0.3361581 -0.3850555 -0.0611051
1.0463860 -1.4255186 -0.9945106
0.0316989 -0.1439492 0.2925154
-1.0424960 0.9281876 2.1057659
0.4780676 0.1935566 -0.6387867
-0.7809356 -0.6712778 -0.8636367
-0.0692834 -0.0537779 0.1565621
0.7473594 0.2428076 0.0465562
-0.5085582 0.4726597 -0.4839611
0.8611566 -0.2634411 0.5240835
-0.0184853 -0.1325543 -0.2148665
0.1184454 0.0347015 0.0479533
-0.1082386 0.0154457 0.2519303
0.1857695 -0.1789905 0.0115608
0.9577731 -0.1429580 1.6618882
-1.1743845 -0.5356969 0.4171042
0.1729189 0.1534702 -0.1990976
-0.4214164 0.2912083 0.0285799
-0.6011674 1.5888470 -0.8146318
-0.1611069 -0.0568274 0.2462261
0.3483865 -0.1642015 -0.4692763
1.8004281 0.3504941 -0.6657560
0.0119890 -0.1976295 -0.4505215
-0.3210098 0.5528344 -0.1352214
0.1994447 0.2427300 0.0028195
0.2419511 -0.1307938 0.2604366
0.0971329 -0.1133266 0.3474452
1.6333232 -0.4102437 -0.0242724
0.2644198 -0.1166795 0.0243782
-1.2416065 0.9539803 -0.7173105
0.3781815 0.3912376 0.0563044
0.4651447 0.6592089 1.1591936
0.0184522 0.2063802 0.3233563
0.3705501 -0.5116088 0.0941749
0.8328411 -1.1909259 0.1105304
0.1158733 1.3136839 -0.7499777
-0.2404754 0.1758826 -0.0023980
-0.7220435 0.5643988 -0.4088039
1.6914922 -1.4163850 -1.3413708
-1.1275230 -0.0441039 0.0586028
-0.2748010 -0.0685269 0.1938812
-0.1332764 0.0637179 0.2485280
0.1030236 -0.0161969 -0.1025593
-0.1612417 0.7954669 -1.2262110
-0.2084183 -0.0598455 -0.4213292
0.0190305 0.5024960 -1.1093832
-0.3187116 0.4120236 0.3432608
-0.2458761 -0.8943660 -0.1934932
-0.3698511 -0.0871500 0.0015769
-1.3476240 1.3955132 0.8546122
0.4716650 1.3934580 1.2331772
1.3694213 1.0848038 1.1193049
0.0387373 0.2831736 0.1950003
0.2279182 -1.1803188 -0.2417388
0.1107710 -0.4179708 -0.0042267
-0.2284667 -0.0042474 0.0863438
0.2034577 -0.1096791 0.0912612
0.9759385 0.4873517 -0.4470994
0.1785165 0.0318135 0.0423561
-0.0844017 0.8858613 1.0911931
0.0889579 -0.4131465 -0.0874883
-0.1355481 -0.3330660 -0.3854526
0.3450645 0.8140520 -0.4159254
0.1128463 0.1989136 0.0462811
-0.3875424 0.1452387 -0.1308851
0.9799300 1.6198994 -0.4339085
0.2231846 0.4648597 -0.0320989
-0.2764255 -0.4290705 -0.6574808
-0.1469455 -0.2492686 0.1270337
0.0614045 -0.4510707 -0.0317613
0.6637584 0.4206791 0.3681604
-0.5617837 0.1358012 0.2057653
-0.2891207 0.3004173 -1.0814904
-0.2381285 -0.2010988 -0.0254359
-0.6240153 -1.4642879 0.4405616
0.2945953 -0.3826249 -0.0375199
-0.3291505 0.2897585 -0.9437268
-0.0883763 0.1993339 0.0648909
-0.3768081 -0.2947126 0.2088621
0.1329693 0.3198537 0.3138614
0.2559466 -0.0368743 0.0554704
-0.0239002 -0.8194487 0.3135361
0.0004544 0.0448650 0.0595719